Version identifier: 20.1.0.0 | 2020-11-10 | 9bedb6d68
Tried aggregator 2 times.
MIP Presolve eliminated 1314 rows and 703 columns.
MIP Presolve modified 3200 coefficients.
Aggregator did 147 substitutions.
Reduced MIP has 1888 rows, 1505 columns, and 6230 nonzeros.
Reduced MIP has 329 binaries, 1176 generals, 0 SOSs, and 0 indicators.
Presolve time = 0.02 sec. (7.65 ticks)
Found incumbent of value 4079.000000 after 0.04 sec. (15.34 ticks)
Probing fixed 40 vars, tightened 372 bounds.
Probing time = 0.00 sec. (1.29 ticks)
Tried aggregator 2 times.
Detecting symmetries...
MIP Presolve eliminated 820 rows and 72 columns.
MIP Presolve modified 175 coefficients.
Aggregator did 22 substitutions.
Reduced MIP has 1046 rows, 1411 columns, and 3504 nonzeros.
Reduced MIP has 409 binaries, 1002 generals, 0 SOSs, and 0 indicators.
Presolve time = 0.01 sec. (5.03 ticks)
Probing time = 0.00 sec. (0.33 ticks)
Clique table members: 85.
MIP emphasis: balance optimality and feasibility.
MIP search method: dynamic search.
Parallel mode: deterministic, using up to 24 threads.
Root relaxation solution time = 0.01 sec. (3.29 ticks)

        Nodes                                         Cuts/
   Node  Left     Objective  IInf  Best Integer    Best Bound    ItCnt     Gap

*     0+    0                         4079.0000        0.0000           100.00%
*     0+    0                           81.0000        0.0000           100.00%
      0     0        0.0000    48       81.0000        0.0000      353  100.00%
      0     0        0.0000    71       81.0000     Cuts: 108      427  100.00%
*     0+    0                           32.0000        0.0000           100.00%
      0     0        0.0000    65       32.0000      Cuts: 41      475  100.00%
      0     0        0.0000    49       32.0000      Cuts: 85      709  100.00%
      0     0        0.0000    64       32.0000      Cuts: 39      844  100.00%
*     0+    0                           31.0000        0.0000           100.00%
*     0+    0                           28.0000        0.0000           100.00%
*     0+    0                           18.0000        0.0000           100.00%
      0     2        0.0000    26       18.0000       15.0000      844   16.67%
Elapsed time = 0.90 sec. (129.42 ticks, tree = 0.02 MB, solutions = 6)
*   126+   30                           16.0000       15.0000             6.25%
*   206+    9                           15.0000       15.0000             0.00%

Cover cuts applied:  12
Implied bound cuts applied:  145
Flow cuts applied:  1
Mixed integer rounding cuts applied:  14
Zero-half cuts applied:  60
Lift and project cuts applied:  14
Gomory fractional cuts applied:  18

Root node processing (before b&c):
  Real time             =    0.81 sec. (129.13 ticks)
Parallel b&c, 24 threads:
  Real time             =    1.35 sec. (44.94 ticks)
  Sync time (average)   =    1.19 sec.
  Wait time (average)   =    0.00 sec.
                          ------------
Total (root+branch&cut) =    2.16 sec. (174.07 ticks)

Solution status = Optimal
Solution LB = 15
Solution UB = 15
Runtime = 2.16453 seconds
	Command being timed: "/home/min/git_repos/CS598MEBProject/CNT-ILP/build/cnt -s 2 ./output/k8_n20/simC_c1_k8_n20_u3_s3_del02.input-right.cnp"
	User time (seconds): 32.47
	System time (seconds): 0.21
	Percent of CPU this job got: 1485%
	Elapsed (wall clock) time (h:mm:ss or m:ss): 0:02.20
	Average shared text size (kbytes): 0
	Average unshared data size (kbytes): 0
	Average stack size (kbytes): 0
	Average total size (kbytes): 0
	Maximum resident set size (kbytes): 121624
	Average resident set size (kbytes): 0
	Major (requiring I/O) page faults: 0
	Minor (reclaiming a frame) page faults: 44894
	Voluntary context switches: 9878
	Involuntary context switches: 4741
	Swaps: 0
	File system inputs: 0
	File system outputs: 16
	Socket messages sent: 0
	Socket messages received: 0
	Signals delivered: 0
	Page size (bytes): 4096
	Exit status: 0
